letting np_cars_plus be 92
letting np_classes be 27
letting np_options be 27
letting quantity_range_min be 4
letting quantity_range_delta be 7
letting maxcars_range_min be 5
letting maxcars_range_delta be 5
letting blksize_delta_range_min be 2
letting blksize_delta_range_delta be 3
letting usage_card_min be 27
letting usage_card_delta be 96